\ LP format - for model browsing. Use MPS format to capture full model detail.
Maximize
obj:   x[1] + x[133] + x[102] + x[93] + x[73] + x[10] + x[11] + x[142] + x[15]
   + x[114] + x[74] + x[21] + x[22] + x[58] + x[127] + x[28] + x[125]
   + x[126] + x[37] + x[2] + x[33] + x[35] + x[4] + x[5] + x[135] + x[141]
   + x[111] + x[113] + x[116] + x[57] + x[91] + x[92] + x[134] + x[3]
   + x[32] + x[70] + x[80] + x[9] + x[42] + x[112] + x[84] + x[30] + x[56]
   + x[94] + x[64] + x[75] + x[130] + x[25] + x[124] + x[98] + x[99]
   + x[101] + x[146] + x[104] + x[105] + x[140] + x[77] + x[49] + x[18]
   + x[123] + x[53] + x[89] + x[47] + x[62] + x[6] + x[103] + x[108]
   + x[13] + x[14] + x[45] + x[48] + x[95] + x[7] + x[65] + x[72] + x[43]
   + x[61] + x[8] + x[137] + x[139] + x[82] + x[54] + x[55] + x[31] + x[69]
   + x[44] + x[50] + x[118] + x[87] + x[26] + x[97] + x[23] + x[107]
   + x[109] + x[46] + x[19] + x[78] + x[12] + x[66] + x[150] + x[39]
   + x[79] + x[144] + x[115] + x[119] + x[122] + x[100] + x[110] + x[145]
   + x[83] + x[60] + x[36] + x[17] + x[20] + x[88] + x[106] + x[120]
   + x[59] + x[16] + x[68] + x[129] + x[76] + x[86] + x[27] + x[138]
   + x[63] + x[121] + x[143] + x[81] + x[24] + x[117] + x[52] + x[34]
   + x[136] + x[71] + x[96] + x[148] + x[40] + x[29] + x[85] + x[41]
   + x[128] + x[147] + x[67] + x[149] + x[90] + x[132] + x[38] + x[51]
   + x[131]
Subject To
 nod1: 10 x[1] + x[133] + x[102] + x[93] + x[73] + x[10] + x[11] + x[142]
   + x[15] + x[114] + x[74] + x[21] + x[22] + x[58] + x[127] + x[28]
   + x[125] + x[126] + x[37] <= 10
 nod133: x[1] + 13 x[133] + x[73] + x[141] + x[92] + x[30] + x[64] + x[124]
   + x[104] + x[49] + x[108] + x[13] + x[14] + x[31] + x[87] + x[78]
   + x[20] + x[68] + x[27] + x[51] <= 13
 nod102: x[1] + 11 x[102] + x[11] + x[2] + x[146] + x[47] + x[6] + x[107]
   + x[100] + x[17] + x[20] + x[88] + x[16] + x[85] + x[131] <= 11
 nod93: x[1] + 11 x[93] + x[74] + x[37] + x[141] + x[42] + x[99] + x[105]
   + x[49] + x[62] + x[108] + x[82] + x[23] + x[109] + x[106] + x[86]
   + x[27] + x[24] + x[29] + x[149] <= 11
 nod73: x[1] + x[133] + 12 x[73] + x[74] + x[112] + x[104] + x[140] + x[49]
   + x[18] + x[137] + x[139] + x[50] + x[26] + x[19] + x[78] + x[16]
   + x[81] + x[136] + x[128] + x[131] <= 12
 nod10: x[1] + 10 x[10] + x[126] + x[92] + x[32] + x[75] + x[25] + x[105]
   + x[103] + x[54] + x[44] + x[118] + x[97] + x[23] <= 10
 nod11: x[1] + x[102] + 13 x[11] + x[58] + x[127] + x[126] + x[135]
   + x[111] + x[32] + x[70] + x[104] + x[6] + x[45] + x[95] + x[82] + x[54]
   + x[107] + x[109] + x[46] + x[19] + x[78] <= 13
 nod142: x[1] + 9 x[142] + x[114] + x[74] + x[21] + x[58] + x[56] + x[101]
   + x[48] + x[65] + x[72] + x[8] + x[139] + x[50] + x[115] + x[60]
   + x[120] + x[63] <= 9
 nod15: x[1] + 6 x[15] + x[127] + x[37] + x[30] + x[64] + x[17] + x[120]
   + x[59] <= 6
 nod114: x[1] + x[142] + 10 x[114] + x[57] + x[101] + x[47] + x[13] + x[95]
   + x[12] + x[115] + x[59] + x[138] + x[121] + x[24] + x[40] <= 10
 nod74: x[1] + x[93] + x[73] + x[142] + 10 x[74] + x[2] + x[18] + x[14]
   + x[78] + x[144] + x[17] + x[52] + x[90] + x[132] + x[131] <= 10
 nod21: x[1] + x[142] + 12 x[21] + x[134] + x[80] + x[30] + x[64] + x[146]
   + x[89] + x[47] + x[14] + x[48] + x[8] + x[12] + x[145] + x[143] + x[96]
   + x[148] + x[40] + x[29] <= 12
 nod22: x[1] + 9 x[22] + x[126] + x[2] + x[98] + x[49] + x[47] + x[43]
   + x[44] + x[46] + x[66] + x[144] + x[119] + x[120] + x[85] <= 9
 nod58: x[1] + x[11] + x[142] + 8 x[58] + x[127] + x[28] + x[91] + x[92]
   + x[98] + x[45] + x[95] + x[139] + x[110] <= 8
 nod127: x[1] + x[11] + x[15] + x[58] + 10 x[127] + x[125] + x[37] + x[141]
   + x[18] + x[45] + x[23] + x[109] + x[36] + x[88] + x[120] + x[138]
   + x[121] + x[117] + x[71] + x[96] <= 10
 nod28: x[1] + x[58] + 9 x[28] + x[4] + x[3] + x[42] + x[104] + x[77]
   + x[43] + x[139] + x[144] + x[119] + x[122] <= 9
 nod125: x[1] + x[127] + 10 x[125] + x[33] + x[84] + x[25] + x[124]
   + x[140] + x[103] + x[43] + x[31] + x[26] + x[144] + x[85] + x[41]
   + x[90] + x[38] <= 10
 nod126: x[1] + x[10] + x[11] + x[22] + 10 x[126] + x[141] + x[91] + x[56]
   + x[53] + x[95] + x[17] + x[63] + x[136] + x[96] + x[148] + x[51] <= 10
 nod37: x[1] + x[93] + x[15] + x[127] + 11 x[37] + x[42] + x[30] + x[105]
   + x[77] + x[45] + x[48] + x[65] + x[61] + x[26] + x[39] + x[144]
   + x[120] + x[136] + x[148] + x[128] + x[149] + x[90] <= 11
 nod2: x[102] + x[74] + x[22] + 12 x[2] + x[33] + x[35] + x[4] + x[5]
   + x[135] + x[141] + x[111] + x[113] + x[116] + x[57] + x[91] + x[92]
   + x[134] <= 12
 nod33: x[125] + x[2] + 9 x[33] + x[111] + x[57] + x[3] + x[30] + x[64]
   + x[140] + x[77] + x[54] + x[69] + x[19] + x[115] + x[20] + x[120]
   + x[117] + x[34] + x[147] <= 9
 nod35: x[2] + 10 x[35] + x[9] + x[112] + x[30] + x[64] + x[130] + x[14]
   + x[45] + x[65] + x[8] + x[82] + x[44] + x[12] + x[39] + x[83] + x[16]
   + x[138] + x[24] + x[40] <= 10
 nod4: x[28] + x[2] + 7 x[4] + x[141] + x[92] + x[64] + x[75] + x[130]
   + x[25] + x[124] <= 7
 nod5: x[2] + 11 x[5] + x[141] + x[116] + x[92] + x[98] + x[99] + x[101]
   + x[146] + x[104] + x[105] + x[140] + x[77] + x[49] + x[18] + x[123]
   + x[53] + x[89] + x[47] + x[62] <= 11
 nod135: x[11] + x[2] + 10 x[135] + x[80] + x[25] + x[104] + x[6] + x[82]
   + x[31] + x[44] + x[109] + x[100] + x[17] + x[71] + x[67] <= 10
 nod141: x[133] + x[93] + x[127] + x[126] + x[2] + x[4] + x[5] + 13 x[141]
   + x[3] + x[80] + x[94] + x[130] + x[101] + x[105] + x[140] + x[53]
   + x[62] + x[6] + x[8] + x[137] + x[50] + x[107] + x[144] + x[86] + x[96]
   <= 13
 nod111: x[11] + x[2] + x[33] + 16 x[111] + x[116] + x[3] + x[94] + x[18]
   + x[62] + x[48] + x[95] + x[65] + x[72] + x[137] + x[118] + x[39]
   + x[115] + x[120] + x[68] + x[86] + x[63] + x[52] + x[96] + x[41]
   + x[90] <= 16
 nod113: x[2] + 9 x[113] + x[42] + x[30] + x[101] + x[89] + x[108] + x[13]
   + x[12] + x[150] + x[20] + x[120] + x[149] + x[131] <= 9
 nod116: x[2] + x[5] + x[111] + 9 x[116] + x[57] + x[134] + x[101] + x[49]
   + x[108] + x[7] + x[31] + x[39] + x[138] + x[52] + x[34] <= 9
 nod57: x[114] + x[2] + x[33] + x[116] + 10 x[57] + x[75] + x[130] + x[53]
   + x[48] + x[54] + x[79] + x[17] + x[88] + x[68] + x[81] + x[71] <= 10
 nod91: x[58] + x[126] + x[2] + 10 x[91] + x[112] + x[77] + x[53] + x[62]
   + x[45] + x[65] + x[145] + x[83] + x[138] + x[34] <= 10
 nod92: x[133] + x[10] + x[58] + x[2] + x[4] + x[5] + 13 x[92] + x[101]
   + x[7] + x[137] + x[54] + x[50] + x[87] + x[23] + x[107] + x[60] + x[88]
   + x[143] + x[52] + x[67] + x[149] + x[131] <= 13
 nod134: x[21] + x[2] + x[116] + 10 x[134] + x[3] + x[98] + x[123] + x[65]
   + x[55] + x[118] + x[23] + x[115] + x[110] + x[86] + x[27] + x[96]
   + x[51] + x[131] <= 10
 nod3: x[28] + x[33] + x[141] + x[111] + x[134] + 10 x[3] + x[32] + x[70]
   + x[80] + x[9] + x[42] + x[112] + x[84] + x[30] + x[56] + x[94] <= 10
 nod32: x[10] + x[11] + x[3] + 12 x[32] + x[99] + x[53] + x[95] + x[8]
   + x[115] + x[122] + x[17] + x[20] + x[120] + x[121] + x[40] + x[147]
   <= 12
 nod70: x[11] + x[3] + 8 x[70] + x[9] + x[98] + x[53] + x[47] + x[13]
   + x[61] + x[115] + x[83] + x[86] <= 8
 nod80: x[21] + x[135] + x[141] + x[3] + 10 x[80] + x[9] + x[112] + x[56]
   + x[146] + x[45] + x[65] + x[82] + x[122] + x[68] + x[76] + x[81]
   + x[96] + x[149] + x[90] <= 10
 nod9: x[35] + x[3] + x[70] + x[80] + 10 x[9] + x[6] + x[8] + x[69] + x[44]
   + x[50] + x[118] + x[87] + x[26] <= 10
 nod42: x[93] + x[28] + x[37] + x[113] + x[3] + 11 x[42] + x[146] + x[95]
   + x[65] + x[8] + x[82] + x[83] + x[16] + x[86] + x[96] + x[67] + x[132]
   <= 11
 nod112: x[73] + x[35] + x[91] + x[3] + x[80] + 7 x[112] + x[101] + x[20]
   + x[76] + x[128] <= 7
 nod84: x[125] + x[3] + 8 x[84] + x[64] + x[140] + x[123] + x[19] + x[12]
   + x[79] + x[81] + x[71] + x[132] <= 8
 nod30: x[133] + x[15] + x[21] + x[37] + x[33] + x[35] + x[113] + x[3]
   + 13 x[30] + x[75] + x[98] + x[137] + x[54] + x[60] + x[36] + x[117]
   + x[34] + x[136] + x[71] + x[40] <= 13
 nod56: x[142] + x[126] + x[3] + x[80] + 15 x[56] + x[124] + x[98] + x[77]
   + x[47] + x[61] + x[139] + x[26] + x[97] + x[78] + x[110] + x[145]
   + x[88] + x[86] + x[63] + x[34] + x[40] + x[90] <= 15
 nod94: x[141] + x[111] + x[3] + 15 x[94] + x[25] + x[49] + x[18] + x[53]
   + x[89] + x[6] + x[137] + x[54] + x[87] + x[97] + x[39] + x[100]
   + x[110] + x[17] + x[20] + x[106] + x[96] + x[51] <= 15
 nod64: x[133] + x[15] + x[21] + x[33] + x[35] + x[4] + x[84] + 13 x[64]
   + x[105] + x[45] + x[95] + x[65] + x[87] + x[46] + x[66] + x[115]
   + x[143] + x[52] + x[34] <= 13
 nod75: x[10] + x[4] + x[57] + x[30] + 11 x[75] + x[104] + x[140] + x[31]
   + x[23] + x[109] + x[39] + x[106] + x[120] + x[138] + x[117] + x[34]
   <= 11
 nod130: x[35] + x[4] + x[141] + x[57] + 9 x[130] + x[98] + x[137] + x[44]
   + x[78] + x[88] + x[121] + x[24] + x[117] + x[40] + x[38] <= 9
 nod25: x[10] + x[125] + x[4] + x[135] + x[94] + 9 x[25] + x[53] + x[14]
   + x[72] + x[139] + x[31] + x[109] + x[39] + x[119] + x[100] + x[88]
   <= 9
 nod124: x[133] + x[125] + x[4] + x[56] + 7 x[124] + x[48] + x[144] + x[16]
   + x[129] + x[27] + x[71] <= 7
 nod98: x[22] + x[58] + x[5] + x[134] + x[70] + x[30] + x[56] + x[130]
   + 13 x[98] + x[104] + x[139] + x[44] + x[26] + x[19] + x[66] + x[39]
   + x[79] + x[60] + x[59] + x[24] + x[147] + x[67] <= 13
 nod99: x[93] + x[5] + x[32] + 8 x[99] + x[72] + x[43] + x[144] + x[88]
   + x[76] + x[86] + x[51] <= 8
 nod101: x[142] + x[114] + x[5] + x[141] + x[113] + x[116] + x[92] + x[112]
   + 12 x[101] + x[53] + x[62] + x[108] + x[61] + x[8] + x[115] + x[83]
   + x[16] + x[71] + x[149] + x[90] <= 12
 nod146: x[102] + x[21] + x[5] + x[80] + x[42] + 11 x[146] + x[62] + x[14]
   + x[95] + x[31] + x[23] + x[119] + x[100] + x[17] + x[129] + x[143]
   + x[52] <= 11
 nod104: x[133] + x[73] + x[11] + x[28] + x[5] + x[135] + x[75] + x[98]
   + 13 x[104] + x[47] + x[137] + x[23] + x[150] + x[145] + x[60] + x[88]
   + x[129] + x[27] + x[121] + x[143] + x[71] <= 13
 nod105: x[93] + x[10] + x[37] + x[5] + x[141] + x[64] + 8 x[105] + x[123]
   + x[48] + x[82] + x[150] + x[148] <= 8
 nod140: x[73] + x[125] + x[33] + x[5] + x[141] + x[84] + x[75] + 12 x[140]
   + x[18] + x[13] + x[48] + x[95] + x[43] + x[26] + x[23] + x[78] + x[119]
   + x[100] + x[86] + x[52] + x[149] <= 12
 nod77: x[28] + x[37] + x[33] + x[5] + x[91] + x[56] + 9 x[77] + x[137]
   + x[118] + x[26] + x[46] + x[117] + x[148] + x[132] <= 9
 nod49: x[133] + x[93] + x[73] + x[22] + x[5] + x[116] + x[94] + 10 x[49]
   + x[108] + x[72] + x[8] + x[139] + x[23] + x[46] + x[100] + x[68]
   + x[129] + x[121] <= 10
 nod18: x[73] + x[74] + x[127] + x[5] + x[111] + x[94] + x[140] + 10 x[18]
   + x[45] + x[72] + x[139] + x[55] + x[69] + x[66] + x[144] + x[122]
   + x[63] + x[121] + x[143] <= 10
 nod123: x[5] + x[134] + x[84] + x[105] + 9 x[123] + x[8] + x[69] + x[78]
   + x[12] + x[20] + x[86] + x[27] + x[136] + x[96] <= 9
 nod53: x[126] + x[5] + x[141] + x[57] + x[91] + x[32] + x[70] + x[94]
   + x[25] + x[101] + 10 x[53] + x[19] + x[79] + x[83] + x[20] + x[143]
   + x[148] + x[29] <= 10
 nod89: x[21] + x[5] + x[113] + x[94] + 10 x[89] + x[45] + x[139] + x[54]
   + x[107] + x[83] + x[88] + x[52] + x[67] + x[149] + x[131] <= 10
 nod47: x[102] + x[114] + x[21] + x[22] + x[5] + x[70] + x[56] + x[104]
   + 10 x[47] + x[139] + x[97] + x[150] + x[36] + x[106] + x[143] + x[29]
   <= 10
 nod62: x[93] + x[5] + x[141] + x[111] + x[91] + x[101] + x[146] + 10 x[62]
   + x[6] + x[44] + x[19] + x[150] + x[88] <= 10
 nod6: x[102] + x[11] + x[135] + x[141] + x[9] + x[94] + x[62] + 9 x[6]
   + x[103] + x[108] + x[13] + x[14] + x[45] + x[48] + x[95] <= 9
 nod103: x[10] + x[125] + x[6] + 9 x[103] + x[108] + x[72] + x[150]
   + x[144] + x[115] + x[100] + x[148] + x[85] + x[41] <= 9
 nod108: x[133] + x[93] + x[113] + x[116] + x[101] + x[49] + x[6] + x[103]
   + 9 x[108] + x[82] + x[55] + x[20] + x[88] + x[16] + x[29] <= 9
 nod13: x[133] + x[114] + x[113] + x[70] + x[140] + x[6] + 8 x[13] + x[48]
   + x[31] + x[100] + x[110] + x[145] + x[83] + x[60] <= 8
 nod14: x[133] + x[74] + x[21] + x[35] + x[25] + x[146] + x[6] + 10 x[14]
   + x[95] + x[82] + x[50] + x[109] + x[39] + x[144] + x[36] + x[17]
   + x[20] + x[88] + x[106] <= 10
 nod45: x[11] + x[58] + x[127] + x[37] + x[35] + x[91] + x[80] + x[64]
   + x[18] + x[89] + x[6] + 12 x[45] + x[65] + x[87] + x[109] + x[12]
   + x[150] + x[120] + x[63] + x[121] + x[40] + x[29] <= 12
 nod48: x[142] + x[21] + x[37] + x[111] + x[57] + x[124] + x[105] + x[140]
   + x[6] + x[13] + 10 x[48] + x[8] + x[54] + x[55] + x[36] + x[88]
   + x[121] + x[149] <= 10
 nod95: x[11] + x[114] + x[58] + x[126] + x[111] + x[32] + x[42] + x[64]
   + x[146] + x[140] + x[6] + x[14] + 11 x[95] + x[87] + x[12] + x[68]
   + x[129] + x[76] + x[96] <= 11
 nod7: x[116] + x[92] + 4 x[7] + x[65] + x[72] + x[43] + x[61] <= 4
 nod65: x[142] + x[37] + x[35] + x[111] + x[91] + x[134] + x[80] + x[42]
   + x[64] + x[45] + x[7] + 9 x[65] + x[43] + x[55] + x[120] + x[51] <= 9
 nod72: x[142] + x[111] + x[25] + x[99] + x[49] + x[18] + x[103] + x[7]
   + 12 x[72] + x[61] + x[26] + x[107] + x[83] + x[129] + x[136] + x[147]
   + x[90] + x[131] <= 12
 nod43: x[22] + x[28] + x[125] + x[99] + x[140] + x[7] + x[65] + 9 x[43]
   + x[137] + x[107] + x[119] + x[63] + x[85] + x[149] + x[51] <= 9
 nod61: x[37] + x[70] + x[56] + x[101] + x[7] + x[72] + 10 x[61] + x[55]
   + x[26] + x[115] + x[122] + x[83] + x[68] + x[81] + x[148] + x[41]
   + x[51] + x[131] <= 10
 nod8: x[142] + x[21] + x[35] + x[141] + x[32] + x[9] + x[42] + x[101]
   + x[49] + x[123] + x[48] + 11 x[8] + x[137] + x[139] + x[82] + x[54]
   + x[55] + x[31] <= 11
 nod137: x[73] + x[141] + x[111] + x[92] + x[30] + x[94] + x[130] + x[104]
   + x[77] + x[43] + x[8] + 11 x[137] + x[50] + x[46] + x[12] + x[119]
   + x[100] + x[120] + x[147] + x[131] <= 11
 nod139: x[73] + x[142] + x[58] + x[28] + x[56] + x[25] + x[98] + x[49]
   + x[18] + x[89] + x[47] + x[8] + 10 x[139] + x[55] + x[78] + x[145]
   + x[60] + x[59] + x[85] + x[67] <= 10
 nod82: x[93] + x[11] + x[35] + x[135] + x[80] + x[42] + x[105] + x[108]
   + x[14] + x[8] + 9 x[82] + x[87] + x[129] + x[52] + x[96] + x[131] <= 9
 nod54: x[10] + x[11] + x[33] + x[57] + x[92] + x[30] + x[94] + x[89]
   + x[48] + x[8] + 8 x[54] + x[26] + x[78] + x[81] + x[117] + x[52] <= 8
 nod55: x[134] + x[18] + x[108] + x[48] + x[65] + x[61] + x[8] + x[139]
   + 11 x[55] + x[118] + x[78] + x[60] + x[17] + x[138] + x[40] + x[67]
   + x[132] + x[131] <= 11
 nod31: x[133] + x[125] + x[135] + x[116] + x[75] + x[25] + x[146] + x[13]
   + x[8] + 9 x[31] + x[19] + x[110] + x[68] + x[86] + x[138] + x[90] <= 9
 nod69: x[33] + x[9] + x[18] + x[123] + 7 x[69] + x[109] + x[150] + x[81]
   + x[34] + x[128] + x[147] <= 7
 nod44: x[10] + x[22] + x[35] + x[135] + x[9] + x[130] + x[98] + x[62]
   + 8 x[44] + x[83] + x[16] + x[121] <= 8
 nod50: x[73] + x[142] + x[141] + x[92] + x[9] + x[14] + x[137] + 9 x[50]
   + x[144] + x[119] + x[145] + x[36] + x[117] + x[40] <= 9
 nod118: x[10] + x[111] + x[134] + x[9] + x[77] + x[55] + 8 x[118] + x[23]
   + x[12] + x[83] + x[60] <= 8
 nod87: x[133] + x[92] + x[9] + x[94] + x[64] + x[45] + x[95] + x[82]
   + 11 x[87] + x[19] + x[78] + x[79] + x[122] + x[100] + x[68] + x[129]
   + x[34] + x[147] + x[67] <= 11
 nod26: x[73] + x[125] + x[37] + x[9] + x[56] + x[98] + x[140] + x[77]
   + x[72] + x[61] + x[54] + 9 x[26] + x[19] + x[122] + x[145] + x[85]
   + x[128] + x[147] <= 9
 nod97: x[10] + x[56] + x[94] + x[47] + 7 x[97] + x[12] + x[83] + x[16]
   + x[40] + x[29] <= 7
 nod23: x[93] + x[10] + x[127] + x[92] + x[134] + x[75] + x[146] + x[104]
   + x[140] + x[49] + x[118] + 10 x[23] + x[150] + x[144] + x[86] + x[24]
   + x[34] + x[148] <= 10
 nod107: x[102] + x[11] + x[141] + x[92] + x[89] + x[72] + x[43]
   + 10 x[107] + x[100] + x[143] + x[117] + x[41] + x[147] + x[132] <= 10
 nod109: x[93] + x[11] + x[127] + x[135] + x[75] + x[25] + x[14] + x[45]
   + x[69] + 9 x[109] + x[59] + x[143] + x[85] + x[147] + x[90] <= 9
 nod46: x[11] + x[22] + x[64] + x[77] + x[49] + x[137] + 7 x[46] + x[78]
   + x[83] + x[20] + x[24] <= 7
 nod19: x[73] + x[11] + x[33] + x[84] + x[98] + x[53] + x[62] + x[31]
   + x[87] + x[26] + 13 x[19] + x[39] + x[79] + x[144] + x[145] + x[36]
   + x[120] + x[68] + x[81] + x[24] + x[117] + x[52] <= 13
 nod78: x[133] + x[73] + x[11] + x[74] + x[56] + x[130] + x[140] + x[123]
   + x[139] + x[54] + x[55] + x[87] + x[46] + 10 x[78] + x[60] + x[85]
   <= 10
 nod12: x[114] + x[21] + x[35] + x[113] + x[84] + x[123] + x[45] + x[95]
   + x[137] + x[118] + x[97] + 12 x[12] + x[66] + x[150] + x[39] + x[79]
   + x[144] + x[115] + x[119] + x[122] <= 12
 nod66: x[22] + x[64] + x[98] + x[18] + x[12] + 10 x[66] + x[119] + x[122]
   + x[83] + x[36] + x[16] + x[143] + x[24] + x[117] + x[136] + x[41]
   + x[67] + x[90] + x[131] <= 10
 nod150: x[113] + x[104] + x[105] + x[47] + x[62] + x[103] + x[45] + x[69]
   + x[23] + x[12] + 8 x[150] + x[106] + x[128] <= 8
 nod39: x[37] + x[35] + x[111] + x[116] + x[94] + x[75] + x[25] + x[98]
   + x[14] + x[19] + x[12] + 11 x[39] + x[60] + x[20] + x[29] + x[85]
   + x[41] + x[132] <= 11
 nod79: x[57] + x[84] + x[98] + x[53] + x[87] + x[19] + x[12] + 8 x[79]
   + x[119] + x[110] + x[86] + x[117] + x[40] + x[85] <= 8
 nod144: x[74] + x[22] + x[28] + x[125] + x[37] + x[141] + x[124] + x[99]
   + x[18] + x[103] + x[14] + x[50] + x[23] + x[19] + x[12] + 13 x[144]
   + x[115] + x[119] + x[138] + x[143] + x[85] + x[90] <= 13
 nod115: x[142] + x[114] + x[33] + x[111] + x[134] + x[32] + x[70] + x[64]
   + x[101] + x[103] + x[61] + x[12] + x[144] + 10 x[115] + x[81] + x[67]
   + x[149] <= 10
 nod119: x[22] + x[28] + x[25] + x[146] + x[140] + x[43] + x[137] + x[50]
   + x[12] + x[66] + x[79] + x[144] + 11 x[119] + x[100] + x[88] + x[59]
   + x[96] + x[148] + x[40] + x[51] + x[131] <= 11
 nod122: x[28] + x[32] + x[80] + x[18] + x[61] + x[87] + x[26] + x[12]
   + x[66] + 9 x[122] + x[81] + x[24] + x[85] <= 9
 nod100: x[102] + x[135] + x[94] + x[25] + x[146] + x[140] + x[49] + x[103]
   + x[13] + x[137] + x[87] + x[107] + x[119] + 12 x[100] + x[88] + x[120]
   + x[129] + x[24] + x[136] + x[147] + x[38] <= 12
 nod110: x[58] + x[134] + x[56] + x[94] + x[13] + x[31] + x[79] + 11 x[110]
   + x[145] + x[36] + x[88] + x[120] + x[86] + x[63] + x[52] + x[71]
   + x[131] <= 11
 nod145: x[21] + x[91] + x[56] + x[104] + x[13] + x[139] + x[50] + x[26]
   + x[19] + x[110] + 10 x[145] + x[143] + x[24] + x[136] + x[149] <= 10
 nod83: x[35] + x[91] + x[70] + x[42] + x[101] + x[53] + x[89] + x[13]
   + x[72] + x[61] + x[44] + x[118] + x[97] + x[46] + x[66] + 14 x[83]
   + x[36] + x[17] + x[27] + x[138] + x[121] + x[136] + x[29] <= 14
 nod60: x[142] + x[92] + x[30] + x[98] + x[104] + x[13] + x[139] + x[55]
   + x[118] + x[78] + x[39] + 10 x[60] + x[68] + x[52] + x[136] + x[85]
   + x[41] + x[51] <= 10
 nod36: x[127] + x[30] + x[47] + x[14] + x[48] + x[50] + x[19] + x[66]
   + x[110] + x[83] + 9 x[36] + x[88] + x[106] + x[27] + x[24] + x[117]
   <= 9
 nod17: x[102] + x[15] + x[74] + x[126] + x[135] + x[57] + x[32] + x[94]
   + x[146] + x[14] + x[55] + x[83] + 11 x[17] + x[76] <= 11
 nod20: x[133] + x[102] + x[33] + x[113] + x[32] + x[112] + x[94] + x[123]
   + x[53] + x[108] + x[14] + x[46] + x[39] + 10 x[20] + x[34] + x[136]
   + x[71] <= 10
 nod88: x[102] + x[127] + x[57] + x[92] + x[56] + x[130] + x[25] + x[99]
   + x[104] + x[89] + x[62] + x[108] + x[14] + x[48] + x[119] + x[100]
   + x[110] + x[36] + 13 x[88] + x[63] <= 13
 nod106: x[93] + x[94] + x[75] + x[47] + x[14] + x[150] + x[36] + 7 x[106]
   + x[68] + x[34] + x[90] <= 7
 nod120: x[142] + x[15] + x[22] + x[127] + x[37] + x[33] + x[111] + x[113]
   + x[32] + x[75] + x[45] + x[65] + x[137] + x[19] + x[100] + x[110]
   + 12 x[120] + x[16] + x[86] + x[34] <= 12
 nod59: x[15] + x[114] + x[98] + x[139] + x[109] + x[119] + 7 x[59] + x[27]
   + x[143] + x[96] + x[29] <= 7
 nod16: x[102] + x[73] + x[35] + x[42] + x[124] + x[101] + x[108] + x[44]
   + x[97] + x[66] + x[120] + 12 x[16] + x[68] + x[129] + x[76] + x[86]
   + x[27] + x[138] <= 12
 nod68: x[133] + x[111] + x[57] + x[80] + x[49] + x[95] + x[61] + x[31]
   + x[87] + x[19] + x[60] + x[106] + x[16] + 12 x[68] + x[129] + x[143]
   + x[34] + x[71] + x[29] + x[67] <= 12
 nod129: x[124] + x[146] + x[104] + x[49] + x[95] + x[72] + x[82] + x[87]
   + x[100] + x[16] + x[68] + 6 x[129] + x[27] <= 6
 nod76: x[80] + x[112] + x[99] + x[95] + x[17] + x[16] + 12 x[76] + x[117]
   + x[52] + x[136] + x[29] + x[85] + x[41] + x[132] <= 12
 nod86: x[93] + x[141] + x[111] + x[134] + x[70] + x[42] + x[56] + x[99]
   + x[140] + x[123] + x[31] + x[23] + x[79] + x[110] + x[120] + x[16]
   + 13 x[86] + x[138] + x[71] + x[128] + x[131] <= 13
 nod27: x[133] + x[93] + x[134] + x[124] + x[104] + x[123] + x[83] + x[36]
   + x[59] + x[16] + x[129] + 8 x[27] + x[24] + x[136] + x[67] <= 8
 nod138: x[114] + x[127] + x[35] + x[116] + x[91] + x[75] + x[55] + x[31]
   + x[144] + x[83] + x[16] + x[86] + 9 x[138] + x[121] + x[71] + x[40]
   + x[85] <= 9
 nod63: x[142] + x[126] + x[111] + x[56] + x[18] + x[45] + x[43] + x[110]
   + x[88] + 8 x[63] + x[34] + x[131] <= 8
 nod121: x[114] + x[127] + x[32] + x[130] + x[104] + x[49] + x[18] + x[45]
   + x[48] + x[44] + x[83] + x[138] + 9 x[121] + x[147] + x[131] <= 9
 nod143: x[21] + x[92] + x[64] + x[146] + x[104] + x[18] + x[53] + x[47]
   + x[107] + x[109] + x[66] + x[144] + x[145] + x[59] + x[68] + 11 x[143]
   + x[117] + x[136] + x[90] <= 11
 nod81: x[73] + x[57] + x[80] + x[84] + x[61] + x[54] + x[69] + x[19]
   + x[115] + x[122] + 8 x[81] + x[34] + x[96] + x[147] + x[67] <= 8
 nod24: x[93] + x[114] + x[35] + x[130] + x[98] + x[23] + x[46] + x[19]
   + x[66] + x[122] + x[100] + x[145] + x[36] + x[27] + 11 x[24] + x[148]
   + x[41] <= 11
 nod117: x[127] + x[33] + x[30] + x[75] + x[130] + x[77] + x[54] + x[50]
   + x[107] + x[19] + x[66] + x[79] + x[36] + x[76] + x[143] + 11 x[117]
   + x[149] <= 11
 nod52: x[74] + x[111] + x[116] + x[92] + x[64] + x[146] + x[140] + x[89]
   + x[82] + x[54] + x[19] + x[110] + x[60] + x[76] + 13 x[52] + x[67]
   + x[149] + x[38] <= 13
 nod34: x[33] + x[116] + x[91] + x[30] + x[56] + x[64] + x[75] + x[69]
   + x[87] + x[23] + x[20] + x[106] + x[120] + x[68] + x[63] + x[81]
   + 12 x[34] + x[128] + x[132] <= 12
 nod136: x[73] + x[126] + x[37] + x[30] + x[123] + x[72] + x[66] + x[100]
   + x[145] + x[83] + x[60] + x[20] + x[76] + x[27] + x[143] + 11 x[136]
   + x[147] <= 11
 nod71: x[127] + x[135] + x[57] + x[84] + x[30] + x[124] + x[101] + x[104]
   + x[110] + x[20] + x[68] + x[86] + x[138] + 11 x[71] + x[147] + x[51]
   <= 11
 nod96: x[21] + x[127] + x[126] + x[141] + x[111] + x[134] + x[80] + x[42]
   + x[94] + x[123] + x[95] + x[82] + x[119] + x[59] + x[81] + 9 x[96]
   + x[148] + x[90] <= 9
 nod148: x[21] + x[126] + x[37] + x[105] + x[77] + x[53] + x[103] + x[61]
   + x[23] + x[119] + x[24] + x[96] + 8 x[148] <= 8
 nod40: x[114] + x[21] + x[35] + x[32] + x[30] + x[56] + x[130] + x[45]
   + x[55] + x[50] + x[97] + x[79] + x[119] + x[138] + 9 x[40] + x[85]
   <= 9
 nod29: x[93] + x[21] + x[53] + x[47] + x[108] + x[45] + x[97] + x[39]
   + x[83] + x[59] + x[68] + x[76] + 10 x[29] + x[149] <= 10
 nod85: x[102] + x[22] + x[125] + x[103] + x[43] + x[139] + x[26] + x[109]
   + x[78] + x[39] + x[79] + x[144] + x[122] + x[60] + x[76] + x[138]
   + x[40] + 11 x[85] + x[67] <= 11
 nod41: x[125] + x[111] + x[103] + x[61] + x[107] + x[66] + x[39] + x[60]
   + x[76] + x[24] + 7 x[41] <= 7
 nod128: x[73] + x[37] + x[112] + x[69] + x[26] + x[150] + x[86] + x[34]
   + 5 x[128] <= 5
 nod147: x[33] + x[32] + x[98] + x[72] + x[137] + x[69] + x[87] + x[26]
   + x[107] + x[109] + x[100] + x[121] + x[81] + x[136] + x[71] + 10 x[147]
   + x[131] <= 10
 nod67: x[135] + x[92] + x[42] + x[98] + x[89] + x[139] + x[55] + x[87]
   + x[66] + x[115] + x[68] + x[27] + x[81] + x[52] + x[85] + 10 x[67]
   + x[131] <= 10
 nod149: x[93] + x[37] + x[113] + x[92] + x[80] + x[101] + x[140] + x[89]
   + x[48] + x[43] + x[115] + x[145] + x[117] + x[52] + x[29] + 9 x[149]
   <= 9
 nod90: x[74] + x[125] + x[37] + x[111] + x[80] + x[56] + x[101] + x[72]
   + x[31] + x[109] + x[66] + x[144] + x[106] + x[143] + x[96] + 10 x[90]
   <= 10
 nod132: x[74] + x[42] + x[84] + x[77] + x[55] + x[107] + x[39] + x[76]
   + x[34] + 9 x[132] <= 9
 nod38: x[125] + x[130] + x[100] + x[52] + 4 x[38] <= 4
 nod51: x[133] + x[126] + x[134] + x[94] + x[99] + x[65] + x[43] + x[61]
   + x[119] + x[60] + x[71] + 9 x[51] <= 9
 nod131: x[102] + x[73] + x[74] + x[113] + x[92] + x[134] + x[89] + x[72]
   + x[61] + x[137] + x[82] + x[55] + x[66] + x[119] + x[110] + x[86]
   + x[63] + x[121] + x[147] + x[67] + 11 x[131] <= 11
Bounds
Binaries
 x[1] x[133] x[102] x[93] x[73] x[10] x[11] x[142] x[15] x[114] x[74] x[21]
 x[22] x[58] x[127] x[28] x[125] x[126] x[37] x[2] x[33] x[35] x[4] x[5]
 x[135] x[141] x[111] x[113] x[116] x[57] x[91] x[92] x[134] x[3] x[32]
 x[70] x[80] x[9] x[42] x[112] x[84] x[30] x[56] x[94] x[64] x[75] x[130]
 x[25] x[124] x[98] x[99] x[101] x[146] x[104] x[105] x[140] x[77] x[49]
 x[18] x[123] x[53] x[89] x[47] x[62] x[6] x[103] x[108] x[13] x[14] x[45]
 x[48] x[95] x[7] x[65] x[72] x[43] x[61] x[8] x[137] x[139] x[82] x[54]
 x[55] x[31] x[69] x[44] x[50] x[118] x[87] x[26] x[97] x[23] x[107] x[109]
 x[46] x[19] x[78] x[12] x[66] x[150] x[39] x[79] x[144] x[115] x[119]
 x[122] x[100] x[110] x[145] x[83] x[60] x[36] x[17] x[20] x[88] x[106]
 x[120] x[59] x[16] x[68] x[129] x[76] x[86] x[27] x[138] x[63] x[121]
 x[143] x[81] x[24] x[117] x[52] x[34] x[136] x[71] x[96] x[148] x[40]
 x[29] x[85] x[41] x[128] x[147] x[67] x[149] x[90] x[132] x[38] x[51]
 x[131]
End
